(set-logic QF_S)
(set-option :parse-transducers true)
(set-option :produce-models true)
(define-fun-rec toLower ((x String) (y String)) Bool
   (or (and (= x "") (= y ""))
       (and (not (= x "")) (not (= y ""))
           (= (char.code (str.head y))
               (ite (and (<= 65 (char.code (str.head x)))
                       (<= (char.code (str.head x)) 90))
                   (+ (char.code (str.head x)) 32)
                   (char.code (str.head x))))
           (toLower (str.tail x) (str.tail y))))
)
(declare-fun sym252 () String)
(declare-fun sym1317 () String)
(declare-fun sym122 () String)
(declare-fun sym861 () String)
(declare-fun sym1203 () String)
(declare-fun sym633 () String)
(declare-fun sym1443 () String)
(declare-fun sym975 () String)
(declare-fun sym1089 () String)
(declare-fun sym405 () String)
(declare-fun sym747 () String)
(declare-fun sym519 () String)
(declare-fun L48  () String)
(declare-fun L7  () String)
(declare-fun L8  () String)
(declare-fun L5  () String)
(declare-fun L10  () String)
(declare-fun L6  () String)
(declare-fun L4  () String)
(declare-fun L1  () String)
(declare-fun L2  () String)
(declare-fun L0  () String)
(declare-fun L17  () String)
(declare-fun L19  () String)
(assert (toLower sym519  L19 ))
(assert (toLower sym747  L17 ))
(assert (toLower sym1203  L0 ))
(assert (toLower sym252  L2 ))
(assert (toLower sym1317  L1 ))
(assert (toLower sym633  L4 ))
(assert (toLower sym122  L6 ))
(assert (toLower sym861  L10 ))
(assert (toLower sym975  L5 ))
(assert (toLower sym405  L8 ))
(assert (toLower sym1089  L7 ))
(assert (toLower sym1443  L48 ))

(assert (not (= L0 "/restart" )))
(assert (not (= L1 "n" )))
(assert (not (= L2 "/quit" )))
(assert (not (str.contains L1 "/say" )))
(assert (not (str.contains L4 "/setsize" )))
(assert (not (= L5 "/help" )))
(assert (not (= L6 "elementary" )))
(assert (not (= L7 "y" )))
(assert (not (str.contains L8 "/setfont" )))
(assert (not (= L4 "/?" )))
(assert (not (= L10 "n" )))
(assert (not (= L2 "/?" )))
(assert (not (= L4 "/clear" )))
(assert (not (str.contains L0 "/say" )))
(assert (not (= L2 "/clear" )))
(assert (= L6 "high school" ))
(assert (not (= L2 "y" )))
(assert (not (= L17 "/help" )))
(assert (not (str.contains L5 "/say" )))
(assert (not (= L19 "/clear" )))
(assert (not (= L19 "/help" )))
(assert (not (str.contains L7 "/setfont" )))
(assert (not (= L0 "n" )))
(assert (not (= L4 "/help" )))
(assert (not (= L4 "y" )))
(assert (not (= L19 "/?" )))
(assert (not (str.contains L5 "/setfont" )))
(assert (not (str.contains L4 "/say" )))
(assert (not (str.contains L7 "/say" )))
(assert (not (= L7 "/?" )))
(assert (not (= L5 "y" )))
(assert (not (= L10 "/clear" )))
(assert (not (= L6 "middle school" )))
(assert (not (= L5 "/quit" )))
(assert (not (str.contains L2 "/setfont" )))
(assert (not (= L8 "/help" )))
(assert (not (str.contains L19 "/setfont" )))
(assert (not (= L1 "/clear" )))
(assert (not (= L8 "y" )))
(assert (not (str.contains L0 "/setsize" )))
(assert (not (= L10 "y" )))
(assert (not (str.contains L8 "/setsize" )))
(assert (not (str.contains L10 "/setsize" )))
(assert (not (= L5 "n" )))
(assert (not (= L0 "/help" )))
(assert (not (= L17 "n" )))
(assert (not (= L8 "/quit" )))
(assert (not (str.contains L4 "/setfont" )))
(assert (not (= L48 "y" )))
(assert (not (str.contains L17 "/setsize" )))
(assert (not (= L17 "/restart" )))
(assert (not (= L7 "/help" )))
(assert (not (str.contains L19 "/setsize" )))
(assert (not (= L2 "/help" )))
(assert (not (= L2 "/restart" )))
(assert (not (str.contains L1 "/setfont" )))
(assert (not (str.contains L19 "/say" )))
(assert (not (= L4 "/restart" )))
(assert (not (= L0 "/quit" )))
(assert (not (= L17 "/?" )))
(assert (not (= L1 "/restart" )))
(assert (not (= L4 "/quit" )))
(assert (not (= L5 "/?" )))
(assert (not (= L0 "/?" )))
(assert (not (= L7 "n" )))
(assert (not (= L8 "/clear" )))
(assert (not (= L10 "/restart" )))
(assert (not (= L10 "/quit" )))
(assert (not (= L8 "/?" )))
(assert (not (= L8 "/restart" )))
(assert (not (= L19 "/restart" )))
(assert (not (= L0 "y" )))
(assert (not (str.contains L8 "/say" )))
(assert (not (= L7 "/restart" )))
(assert (not (str.contains L10 "/setfont" )))
(assert (not (str.contains L17 "/setfont" )))
(assert (not (= L17 "/quit" )))
(assert (not (= L48 "/restart" )))
(assert (not (str.contains L5 "/setsize" )))
(assert (not (str.contains L2 "/setsize" )))
(assert (not (= L1 "/quit" )))
(assert (not (= L17 "/clear" )))
(assert (not (= L10 "/help" )))
(assert (not (= L1 "y" )))
(assert (not (str.contains L17 "/say" )))
(assert (not (str.contains L7 "/setsize" )))
(assert (not (= L7 "/quit" )))
(assert (not (= L7 "/clear" )))
(assert (not (= L5 "/clear" )))
(assert (not (= L4 "n" )))
(assert (not (= L10 "/?" )))
(assert (not (= L19 "y" )))
(assert (not (str.contains L1 "/setsize" )))
(assert (not (= L19 "/quit" )))
(assert (not (= L2 "n" )))
(assert (not (= L19 "n" )))
(assert (not (= L1 "/?" )))
(assert (not (= L17 "y" )))
(assert (not (= L1 "/help" )))
(assert (not (str.contains L0 "/setfont" )))
(assert (not (= L5 "/restart" )))
(assert (not (= L0 "/clear" )))
(assert (= L48 "n" ))
(assert (not (= L8 "n" )))
(assert (not (str.contains L10 "/say" )))
(assert (not (str.contains L2 "/say" )))
(check-sat)
(get-model)
(exit)
